benchmarks/bfuzz0/275430045133341321021037135001050719111.smt2
(set-logic QF_FP)
(declare-const x0 (_ FloatingPoint 8 24))
(declare-const x1 (_ FloatingPoint 8 24))
(declare-const x2 (_ FloatingPoint 8 24))
(declare-const x3 (_ FloatingPoint 8 24))
(declare-const x4 (_ FloatingPoint 8 24))
(declare-const x5 (_ FloatingPoint 8 24))
(declare-const x6 (_ FloatingPoint 8 24))
(declare-const x7 (_ FloatingPoint 8 24))
(assert (fp.lt (fp.neg x0) (fp.sub RNE x5 x6)))
(assert (fp.geq (fp.div RNE x3 x0) (fp.neg x7)))
(assert (fp.gt (fp.neg x3) (fp.div RNE x6 x7)))
(assert (fp.gt (fp.sub RNE x1 x4) (fp.add RNE x4 x4)))
(assert (fp.gt (fp.mul RNE x1 x5) (fp.mul RNE x6 x2)))
(check-sat)
