db/data/275430045133341321021037135001050719111.z3.out
sat
-------------------
10.445400995
